35 35
22
3 3 4 26
4 3 0 0
3 5 29 30
3 6 4 29
3 7 4 0
3 8 29 12
3 9 32 22
3 10 29 20
3 12 29 0
3 19 4 7
3 22 32 0
3 4 32 31
4 4 25 8
4 5 7 6
4 6 7 0
4 7 7 11
4 8 25 0
4 12 0 23
4 17 7 18
4 20 0 3
4 23 25 12
14 35 11 0
